qe/outputs/qe/qe_queries/T=5,eliminate=[I_0,I_1,I_2,I_3,I_4,L_3,L_4,C,B,lhs=Q_4].smt2
; benchmark generated from python API
(set-info :status unknown)
(declare-fun S_0 () Real)
(declare-fun S_1 () Real)
(declare-fun S_2 () Real)
(declare-fun S_3 () Real)
(declare-fun L_2 () Real)
(declare-fun A_3 () Real)
(declare-fun S_4 () Real)
(declare-fun A_4 () Real)
(declare-fun Q_4 () Real)
(declare-fun A_1 () Real)
(declare-fun L_1 () Real)
(declare-fun A_2 () Real)
(declare-fun L_0 () Real)
(declare-fun A_0 () Real)
(assert
 (let (($x1387 (>= Q_4 0.0)))
 (let ((?x860 (* (- 1.0) A_0)))
 (let ((?x2397 (* (/ 1.0 3.0) S_4)))
 (let ((?x767 (* (- 1.0) A_4)))
 (let ((?x2525 (* (/ 4.0 3.0) L_1)))
 (let (($x44832 (<= (+ ?x2525 Q_4 ?x767 (* (- (/ 1.0 3.0)) A_1) ?x2397 S_0 ?x860 A_3) 0.0)))
 (let ((?x849 (* (- 1.0) A_1)))
 (let ((?x3755 (* (/ 1.0 4.0) S_4)))
 (let ((?x3769 (* (- (/ 3.0 4.0)) L_0)))
 (let ((?x3768 (* (/ 3.0 4.0) A_0)))
 (let (($x3841 (<= (+ ?x3768 ?x3769 ?x3755 L_1 ?x849) 0.0)))
 (let (($x2777 (= Q_4 0.0)))
 (let ((?x756 (* (- 1.0) L_0)))
 (let ((?x765 (* (- 1.0) L_1)))
 (let (($x669 (= ?x765 ?x756)))
 (let ((?x8010 (* 2.0 S_0)))
 (let ((?x1366 (* (- 3.0) A_0)))
 (let (($x42500 (<= (+ Q_4 ?x767 ?x1366 L_0 ?x8010 L_1 A_1 A_3) 0.0)))
 (let ((?x18996 (* (/ 1.0 2.0) A_3)))
 (let ((?x13418 (* (- (/ 1.0 2.0)) A_1)))
 (let ((?x12254 (* (/ 1.0 2.0) L_1)))
 (let ((?x3569 (* (/ 1.0 2.0) L_0)))
 (let ((?x3568 (* (- (/ 1.0 2.0)) A_0)))
 (let ((?x12253 (* (- (/ 1.0 2.0)) A_4)))
 (let (($x20621 (<= (+ ?x12253 ?x3568 ?x3569 S_1 ?x12254 ?x13418 ?x18996) 0.0)))
 (let (($x1660 (<= (+ Q_4 ?x767 ?x860 L_0 (* 2.0 S_1) L_1 ?x849 A_3) 0.0)))
 (let ((?x1261 (* 3.0 A_2)))
 (let ((?x1357 (* (- 2.0) L_2)))
 (let ((?x5316 (* 3.0 S_0)))
 (let ((?x1384 (* (- 2.0) A_1)))
 (let (($x16669 (<= (+ (* 5.0 L_1) Q_4 ?x767 ?x1384 ?x5316 ?x1357 ?x1366 ?x1261) 0.0)))
 (let ((?x774 (* (- 1.0) L_2)))
 (let ((?x1383 (* 2.0 L_1)))
 (let (($x3280 (<= (+ A_2 ?x774 ?x1383 ?x1384 ?x756 A_0) 0.0)))
 (let (($x361513 (or $x669 $x2777 $x3280 (<= (+ Q_4 ?x767 A_3 ?x1383 ?x849 S_0 ?x774 ?x860 A_2) 0.0) $x16669)))
 (let ((?x1015 (* (- 1.0) A_2)))
 (let (($x49909 (<= (+ Q_4 ?x767 ?x1015 L_2 S_4 A_0 ?x756 L_1 ?x849 A_3) 0.0)))
 (let ((?x1371 (* 2.0 A_3)))
 (let ((?x1971 (* (- 2.0) A_0)))
 (let ((?x1365 (* (- 2.0) A_4)))
 (let ((?x1254 (* 2.0 Q_4)))
 (let (($x19656 (<= (+ ?x1254 ?x1365 ?x1015 L_2 S_4 ?x1383 ?x8010 ?x1971 ?x1371) 0.0)))
 (let ((?x921 (* (- 2.0) A_2)))
 (let ((?x1321 (* 2.0 L_2)))
 (let ((?x1461 (* (- 2.0) L_0)))
 (let ((?x1908 (* 2.0 A_0)))
 (let ((?x1492 (* 2.0 S_4)))
 (let (($x6238 (<= (+ ?x1492 ?x1908 ?x1461 ?x1365 ?x1383 ?x1321 ?x1384 ?x921 ?x1371) 0.0)))
 (let ((?x2963 (* (/ 1.0 3.0) S_3)))
 (let ((?x2930 (* (/ 1.0 3.0) L_0)))
 (let ((?x4932 (* (- (/ 4.0 3.0)) A_0)))
 (let ((?x1614 (* 3.0 A_3)))
 (let ((?x1608 (* (- 3.0) A_1)))
 (let ((?x1621 (* 3.0 L_1)))
 (let ((?x1338 (* 2.0 S_3)))
 (let ((?x1619 (* (- 3.0) A_4)))
 (let ((?x1337 (* 3.0 Q_4)))
 (let (($x810373 (or $x669 (<= (+ ?x1337 ?x1619 A_0 ?x756 ?x1338 ?x1621 ?x1608 ?x1614) 0.0) $x2777 (<= (+ Q_4 ?x767 ?x4932 ?x2930 ?x2963 S_0 L_1 A_3) 0.0))))
 (let (($x20759 (<= (+ ?x1015 L_2 S_4 ?x767 A_0 ?x756 L_1 ?x849 A_3) 0.0)))
 (let ((?x8066 (* (- 4.0) A_1)))
 (let ((?x3041 (* 4.0 L_1)))
 (let ((?x1454 (* (- 3.0) L_0)))
 (let ((?x1453 (* 3.0 A_0)))
 (let ((?x5289 (* 4.0 Q_4)))
 (let (($x47276 (<= (+ ?x5289 ?x1453 ?x1454 S_4 ?x3041 ?x8066) 0.0)))
 (let (($x6864 (<= (+ A_3 (* (- 1.0) S_4) ?x774) 0.0)))
 (let (($x4904 (<= (+ (* (- (/ 2.0 3.0)) S_4) (* (- (/ 1.0 3.0)) A_0) ?x2930 S_2) 0.0)))
 (let (($x92371 (<= (+ ?x1383 Q_4 ?x767 ?x849 S_2 S_0 ?x860 A_3) 0.0)))
 (let (($x4074 (<= (+ (* (/ 1.0 2.0) A_0) (* (- (/ 1.0 2.0)) L_0) (* (/ 1.0 2.0) S_2) L_1 ?x849) 0.0)))
 (let ((?x1388 (* (- 2.0) A_3)))
 (let ((?x1469 (* (- 2.0) S_1)))
 (let ((?x1963 (* (- 1.0) S_4)))
 (let ((?x1446 (* 2.0 A_4)))
 (let ((?x1980 (* (- 2.0) Q_4)))
 (let ((?x1653 (* (- 3.0) L_1)))
 (let (($x31799 (<= (+ (* (- 1.0) Q_4) A_4 A_2 ?x774 (* (- 2.0) S_4) ?x765) 0.0)))
 (let ((?x758 (* (- 1.0) A_3)))
 (let ((?x1348 (* (- 1.0) S_1)))
 (let ((?x723 (* (- 1.0) Q_4)))
 (let (($x22398 (<= (+ ?x723 A_4 A_2 ?x774 ?x1963 ?x765 ?x1348 A_0 ?x758) 0.0)))
 (let (($x16671 (<= (+ ?x765 ?x1980 ?x1446 A_1 (* (- 3.0) S_4) ?x1357) 0.0)))
 (let ((?x1655 (* (- 3.0) A_3)))
 (let ((?x4465 (* (- 3.0) S_1)))
 (let ((?x4468 (* 4.0 A_0)))
 (let ((?x1635 (* 3.0 A_4)))
 (let ((?x1324 (* (- 3.0) Q_4)))
 (let (($x10890 (<= (+ ?x1324 ?x1635 ?x4468 ?x756 ?x1963 ?x4465 ?x1653 ?x1655) 0.0)))
 (let (($x8032 (<= (+ ?x1324 ?x1635 A_0 ?x756 (* (- 4.0) S_4) (* (- 3.0) L_2)) 0.0)))
 (let (($x1350 (<= (+ ?x723 A_0 ?x1348 ?x765) 0.0)))
 (let (($x340351 (or $x1350 $x6864 $x8032 $x10890 $x16671 $x22398 $x31799 (<= (+ ?x1653 ?x1980 ?x1446 A_1 ?x1963 ?x1469 ?x1908 ?x1388) 0.0))))
 (let (($x50037 (<= (+ Q_4 ?x767 ?x921 ?x1321 ?x1338 A_0 ?x756 L_1 ?x849 A_3) 0.0)))
 (let (($x42506 (not $x42500)))
 (let (($x830233 (or $x669 $x2777 (<= (+ Q_4 ?x767 ?x1015 L_2 S_3 L_1 S_0 ?x860 A_3) 0.0) $x42506)))
 (let ((?x4060 (* (/ 1.0 2.0) S_2)))
 (let (($x11071 (<= (+ Q_4 ?x767 (* (- (/ 3.0 2.0)) A_0) ?x3569 ?x4060 S_0 L_1 A_3) 0.0)))
 (let (($x1658 (<= (+ Q_4 ?x767 S_2 L_1 ?x849 A_3) 0.0)))
 (let (($x829563 (or $x669 $x1658 $x11071 (not (<= (+ ?x723 ?x767 A_3 L_1 ?x849 ?x774 A_2) 0.0)))))
 (let (($x11006 (<= (+ ?x723 A_4 ?x1908 ?x756 (* (- 1.0) S_2) ?x1348 ?x765 ?x758) 0.0)))
 (let (($x8009 (<= (+ ?x723 A_4 ?x1453 ?x1454 (* (- 4.0) S_2) ?x774) 0.0)))
 (let (($x2187 (<= (+ ?x765 A_1 (* (- 1.0) S_2)) 0.0)))
 (let ((?x21600 (+ Q_4 ?x767 (* (- (/ 5.0 4.0)) A_0) (* (/ 1.0 4.0) L_0) ?x3755 S_0 L_1 A_3)))
 (let (($x22807 (<= ?x21600 0.0)))
 (let (($x1598 (<= (+ ?x1254 ?x1365 A_0 ?x756 S_4 ?x1383 ?x1384 ?x1371) 0.0)))
 (let (($x4471 (<= (+ ?x1908 ?x756 A_4 (* (- 1.0) S_2) ?x1348 ?x765 ?x758) 0.0)))
 (let (($x2364 (not $x2777)))
 (let (($x821820 (or $x669 $x2777 (<= (+ Q_4 ?x767 ?x1971 L_0 S_1 S_0 L_1 A_3) 0.0) $x42506)))
 (let (($x46849 (<= (+ ?x1980 ?x860 L_0 (* (- 2.0) L_1) L_2 (* 2.0 A_1) ?x1015) 0.0)))
 (let ((?x1258 (* (- 2.0) S_4)))
 (let ((?x1358 (* 2.0 A_2)))
 (let (($x42662 (<= (+ ?x723 A_4 ?x1358 ?x1357 ?x1258 ?x860 L_0 ?x765 A_1 ?x758) 0.0)))
 (let (($x1654 (<= (+ ?x1324 ?x1635 ?x860 L_0 ?x1258 ?x1653 (* 3.0 A_1) ?x1655) 0.0)))
 (let (($x823447 (or $x1654 (<= (+ ?x723 A_2 ?x774 ?x1963 ?x860 L_0 ?x765 A_1) 0.0) $x2777 $x6864 (<= (+ ?x723 A_4 A_0 ?x756 L_2 ?x921) 0.0) $x31799 $x42662 $x46849)))
 (let ((?x3597 (* (/ 1.0 2.0) S_3)))
 (let ((?x13372 (* (/ 3.0 2.0) L_1)))
 (let (($x816875 (or $x669 $x2777 (<= (+ (* (/ 2.0 3.0) A_0) (* (- (/ 2.0 3.0)) L_0) ?x2963 L_1 ?x849) 0.0) (<= (+ ?x13372 Q_4 ?x767 ?x13418 ?x3597 S_0 ?x860 A_3) 0.0))))
 (let (($x3843 (<= (+ (* (/ 1.0 2.0) A_0) (* (- (/ 1.0 2.0)) L_0) (* (/ 1.0 2.0) S_4) L_2 ?x1015) 0.0)))
 (let (($x814856 (or $x669 (not (<= (+ ?x723 A_4 ?x765 L_2 A_1 ?x1015 ?x758) 0.0)) $x2777 $x3843 $x19656)))
 (let (($x3638 (<= (+ (* (/ 1.0 2.0) A_0) ?x3597 (* (- (/ 1.0 2.0)) L_0) L_1 ?x849) 0.0)))
 (let (($x1926 (<= (+ A_2 ?x774 (* (- 1.0) S_3)) 0.0)))
 (let ((?x1334 (* (- 1.0) S_3)))
 (let ((?x1378 (* (- 2.0) L_1)))
 (let (($x69020 (<= (+ ?x1378 ?x723 A_4 A_1 ?x1334 ?x1348 A_0 ?x758) 0.0)))
 (let (($x16683 (<= (+ ?x1378 ?x723 A_4 (* 2.0 A_1) (* (- 3.0) S_3) ?x774) 0.0)))
 (let (($x8030 (<= (+ ?x723 A_4 A_0 ?x756 (* (- 2.0) S_3) ?x774) 0.0)))
 (let (($x7314 (<= (+ ?x1980 ?x1446 ?x1453 ?x756 ?x1334 ?x1469 ?x1378 ?x1388) 0.0)))
 (let (($x13591 (<= (+ ?x1378 (* 2.0 A_1) ?x1334 L_0 ?x860) 0.0)))
 (let (($x8068 (<= (+ ?x723 A_4 ?x1453 ?x1454 ?x774 ?x3041 ?x8066) 0.0)))
 (let (($x8022 (not $x8068)))
 (let (($x1336 (<= (+ ?x723 ?x1334 ?x774 A_2) 0.0)))
 (let (($x1686 (<= (+ ?x723 A_4 A_0 ?x756 L_1 ?x849 ?x758) 0.0)))
 (let ((?x11485 (* (- (/ 1.0 2.0)) L_1)))
 (let ((?x1476 (* (- 1.0) S_2)))
 (let ((?x12627 (* (/ 1.0 2.0) L_2)))
 (let ((?x10416 (* (- (/ 1.0 2.0)) A_2)))
 (let ((?x10964 (* (/ 1.0 2.0) A_4)))
 (let ((?x22073 (* (- (/ 1.0 2.0)) Q_4)))
 (let (($x55284 (<= (+ ?x22073 ?x10964 ?x10416 ?x12627 A_0 ?x1476 ?x756 ?x11485) 0.0)))
 (let (($x2231 (<= (+ L_2 ?x765) 0.0)))
 (let (($x2199 (not $x2231)))
 (let (($x1953 (<= (+ ?x723 ?x1476 ?x765 A_1) 0.0)))
 (let (($x1656 (<= (+ ?x723 A_4 A_0 ?x756 (* (- 2.0) S_2) ?x765 A_1 ?x758) 0.0)))
 (let (($x2495 (<= (+ (* (- (/ 4.0 3.0)) L_1) (* (/ 4.0 3.0) A_1) (* (- (/ 1.0 3.0)) S_4) L_0 ?x860) 0.0)))
 (let (($x2250 (<= (+ Q_4 ?x767 A_3 A_2 ?x774 L_1 ?x849) 0.0)))
 (let (($x1230 (not (<= (+ ?x723 ?x1365 ?x860 L_0 ?x774 A_2 ?x1371) 0.0))))
 (let (($x48205 (<= (+ ?x1324 ?x1971 (* 2.0 L_0) ?x1963 ?x1653 (* 3.0 A_1)) 0.0)))
 (let (($x4967 (<= (+ (* (/ 2.0 3.0) S_4) (* (/ 1.0 3.0) A_0) (* (- (/ 1.0 3.0)) L_0) L_2 ?x1015) 0.0)))
 (let (($x4916 (not $x4967)))
 (let (($x17170 (<= (+ ?x1378 (* 2.0 A_1) L_0 L_2 ?x860 ?x1015) 0.0)))
 (let (($x1231 (<= (+ ?x1324 ?x860 L_0 ?x1258 (* (- 3.0) L_2) ?x1261) 0.0)))
 (let (($x2248 (<= (+ ?x1254 ?x1365 ?x1371 A_2 ?x774 L_0 ?x860) 0.0)))
 (let (($x1333 (<= (+ ?x1254 A_0 ?x756 S_4 ?x1321 ?x921) 0.0)))
 (let (($x1355 (<= (+ Q_4 ?x860 S_0 L_1) 0.0)))
 (let (($x367140 (or $x669 $x1355 $x2777 (<= (+ Q_4 ?x758 S_4 A_0 ?x756 L_1 L_2 ?x849) 0.0))))
 (let ((?x21214 (* (/ 3.0 2.0) A_3)))
 (let ((?x13416 (* (- (/ 3.0 2.0)) A_1)))
 (let ((?x35516 (* (- (/ 3.0 2.0)) A_4)))
 (let ((?x3770 (* (/ 1.0 2.0) S_4)))
 (let (($x17398 (<= (+ ?x767 L_1 S_0 ?x860 A_3) 0.0)))
 (let (($x13432 (<= (+ (* (- (/ 3.0 2.0)) L_1) (* (/ 3.0 2.0) A_1) (* (- (/ 1.0 2.0)) S_4) L_0 ?x860) 0.0)))
 (let (($x322664 (or $x669 $x13432 $x17398 (<= (+ ?x3770 A_0 ?x756 ?x35516 ?x13372 ?x13416 ?x21214) 0.0))))
 (let (($x13333 (<= (+ Q_4 ?x1378 (* 2.0 A_1) L_0 L_2 ?x860 ?x1015) 0.0)))
 (let (($x1345 (<= (+ ?x723 A_0 ?x756 (* (- 2.0) S_2) ?x774 A_2) 0.0)))
 (let (($x3035 (<= (+ (* (/ 1.0 3.0) A_0) (* (- (/ 1.0 3.0)) L_0) (* (/ 2.0 3.0) S_3) L_2 ?x1015) 0.0)))
 (let (($x1342 (<= (+ ?x1337 A_0 ?x756 ?x1338 (* 3.0 L_2) (* (- 3.0) A_2)) 0.0)))
 (let (($x806155 (or $x669 $x1342 $x1355 (not $x3035) (<= (+ ?x1337 ?x1908 ?x1461 S_3 ?x1621 ?x1608) 0.0))))
 (let ((?x1356 (* 2.0 L_0)))
 (let ((?x1368 (* 2.0 A_1)))
 (let (($x825705 (or $x1350 $x2199 (<= (+ Q_4 ?x767 A_2 ?x774 ?x765 ?x1368 ?x1356 ?x1971) 0.0) $x11006 $x55284)))
 (let (($x18846 (<= (+ ?x765 ?x723 A_4 A_1 (* (- 2.0) S_3) ?x774 A_2 ?x758) 0.0)))
 (let (($x5238 (<= (+ ?x1980 ?x1446 A_0 ?x756 (* (- 3.0) S_3) ?x1357 ?x1358 ?x1388) 0.0)))
 (let (($x29745 (<= (+ Q_4 ?x767 A_2 ?x774 ?x1971 ?x1356 (* 2.0 S_1) L_1) 0.0)))
 (let (($x8008 (<= (+ Q_4 ?x767 ?x1366 (* 3.0 L_0) (* 4.0 S_1) L_2) 0.0)))
 (let (($x7895 (<= (+ Q_4 ?x767 A_3 ?x860 L_0 S_1) 0.0)))
 (let (($x3632 (<= (+ ?x723 ?x3568 (* (- (/ 1.0 2.0)) S_3) ?x3569 ?x765 A_1) 0.0)))
 (let (($x2003 (<= (+ ?x1254 A_2 ?x774 A_0 ?x756 ?x1383 ?x1384) 0.0)))
 (let (($x1612 (<= (+ ?x723 A_4 ?x1334 ?x765 A_1 ?x758) 0.0)))
 (let (($x42648 (<= (+ A_2 ?x774 ?x1963 ?x860 L_0 S_1) 0.0)))
 (let (($x4928 (<= (+ (* (- (/ 1.0 3.0)) S_4) (* (- (/ 2.0 3.0)) A_0) (* (/ 2.0 3.0) L_0) S_1) 0.0)))
 (let (($x47495 (not $x46849)))
 (let (($x1380 (<= (+ ?x723 ?x860 L_0 ?x1378 L_2 ?x1368 ?x1015) 0.0)))
 (let (($x363489 (or $x669 $x1355 (<= (+ Q_4 ?x1015 L_2 S_3 A_0 ?x756 L_1 ?x849) 0.0) (not (<= (+ ?x1015 L_2 S_3 L_1 ?x849 ?x756 A_0) 0.0)))))
 (let (($x2910 (<= (+ ?x1015 L_2 S_4 ?x1383 ?x1384 ?x1461 ?x1908) 0.0)))
 (let (($x2705 (not $x2910)))
 (let (($x1919 (<= (+ ?x1254 ?x1015 L_2 S_4 ?x1908 ?x1461 ?x1383 ?x1384) 0.0)))
 (let (($x7893 (<= (+ ?x1980 ?x1446 ?x1388 A_0 ?x1334 ?x756) 0.0)))
 (let (($x3580 (not $x3638)))
 (let (($x5664 (<= (+ ?x756 S_0 ?x1621 ?x774 ?x1384 A_2) 0.0)))
 (let (($x17934 (<= (+ L_1 ?x1980 ?x849 ?x1963 ?x1357 ?x1358) 0.0)))
 (let (($x7225 (<= (+ ?x1337 ?x1371 A_0 ?x756 L_2 (* (- 3.0) A_2)) 0.0)))
 (let (($x5309 (<= (+ ?x723 A_4 ?x1963 ?x774 A_2 ?x758) 0.0)))
 (let (($x1377 (<= (+ Q_4 A_0 ?x756 L_2 (* (- 3.0) A_2) ?x1371) 0.0)))
 (let (($x1250 (not $x1377)))
 (let (($x13376 (<= (+ ?x12254 ?x13418 (* (- (/ 1.0 2.0)) S_4) S_2) 0.0)))
 (let (($x2775 (<= (+ A_3 ?x767) 0.0)))
 (let (($x326416 (or $x1230 $x2248 (<= (+ ?x2397 (* (/ 2.0 3.0) A_0) (* (- (/ 2.0 3.0)) L_0) L_1 ?x849) 0.0) $x5309 $x6864 $x16671 $x17934)))
 (let (($x842746 (or $x2777 $x5309 $x6864 $x8068 $x16671 (<= (+ ?x1383 ?x1980 ?x767 ?x1384 ?x1357 ?x1261) 0.0))))
 (let ((?x3593 (* (- (/ 1.0 2.0)) L_0)))
 (let ((?x3616 (* (- (/ 1.0 2.0)) S_3)))
 (let ((?x3610 (* (/ 1.0 2.0) A_0)))
 (let (($x836185 (or $x1231 (not (<= (+ ?x1324 ?x860 L_0 ?x774 ?x1261 ?x1388) 0.0)) $x5309 $x8032 (<= (+ ?x723 ?x860 L_0 ?x774 ?x1261 ?x1388) 0.0) $x13432)))
 (let (($x1390 (<= (+ ?x1324 ?x860 L_0 ?x774 ?x1261 ?x1388) 0.0)))
 (let (($x1386 (<= (+ ?x723 A_0 ?x756 ?x1383 ?x774 ?x1384 A_2) 0.0)))
 (let (($x330250 (or $x669 $x1386 $x2777 (<= (+ ?x1621 Q_4 ?x767 ?x849 ?x8010 ?x774 ?x1971 A_2 A_3) 0.0))))
 (let (($x359422 (or $x1231 $x2777 $x5309 $x13432 (<= (+ ?x1258 ?x1908 ?x1461 (* (- 6.0) A_2) (* 6.0 A_3)) 0.0))))
 (let (($x17132 (not $x17170)))
 (let (($x9048 (<= (+ Q_4 ?x1388 ?x1492 A_0 ?x756 (* 3.0 L_2) ?x1015) 0.0)))
 (let (($x5977 (<= (+ ?x1963 A_0 ?x756 ?x1621 (* (- 3.0) L_2) ?x1608 ?x1261) 0.0)))
 (let (($x4954 (<= (+ (* (- (/ 2.0 3.0)) S_4) ?x4932 ?x2930 S_0 L_1 ?x774 A_2) 0.0)))
 (let (($x18916 (<= (+ ?x1653 Q_4 ?x767 (* 3.0 A_1) ?x1356 L_2 ?x1971 ?x1015 A_3) 0.0)))
 (let ((?x2238 (* 4.0 A_3)))
 (let ((?x3388 (* (- 4.0) A_2)))
 (let ((?x5287 (* 4.0 L_2)))
 (let ((?x2329 (* 3.0 S_4)))
 (let ((?x2957 (* (- 4.0) A_4)))
 (let (($x364220 (or $x2231 $x2777 (<= (+ ?x5289 ?x2957 A_0 ?x756 ?x2329 ?x5287 ?x3388 ?x2238) 0.0) $x18916)))
 (let (($x15887 (<= (+ ?x723 A_4 ?x758 ?x1378 A_1 ?x1348 L_2 A_0 ?x1015) 0.0)))
 (let (($x7848 (<= (+ ?x1980 ?x1446 ?x1388 ?x1908 ?x756 ?x1348 L_2 ?x765 ?x1015) 0.0)))
 (let ((?x5321 (* 4.0 A_2)))
 (let ((?x1293 (* (- 3.0) L_2)))
 (let (($x341490 (or $x669 $x2250 $x2777 (<= (+ ?x1254 ?x1365 ?x1371 ?x1971 L_0 S_0 ?x774 L_1 A_2) 0.0) (<= (+ Q_4 ?x767 ?x1366 L_0 ?x8010 ?x774 ?x1383 ?x1358) 0.0) (<= (+ Q_4 ?x767 A_0 ?x756 ?x1293 ?x3041 ?x8066 ?x5321) 0.0))))
 (let (($x4635 (<= (+ ?x1254 ?x1365 ?x860 L_0 (* 3.0 S_2) ?x1321 ?x921 ?x1371) 0.0)))
 (let (($x383453 (or $x2187 $x2231 (<= (+ ?x1492 ?x1908 ?x1461 ?x1365 (* (- 2.0) S_2) ?x1321 ?x921 ?x1371) 0.0))))
 (let (($x17190 (<= (+ S_4 (* (- 4.0) L_1) (* 4.0 A_1) L_0 ?x5287 ?x860 ?x3388) 0.0)))
 (let (($x1245 (not $x1380)))
 (let ((?x34905 (* (/ 1.0 3.0) A_3)))
 (let ((?x2448 (* (/ 1.0 3.0) L_1)))
 (let ((?x34791 (* (/ 1.0 3.0) S_0)))
 (let ((?x31077 (* (- (/ 1.0 3.0)) A_4)))
 (let ((?x2786 (* (- (/ 2.0 3.0)) L_0)))
 (let ((?x2960 (* (/ 1.0 3.0) A_0)))
 (let (($x32524 (<= (+ ?x2397 ?x2960 ?x2786 ?x31077 ?x1476 ?x34791 ?x2448 ?x34905) 0.0)))
 (let (($x838103 (or $x669 $x1345 $x1380 (not (<= (+ ?x860 ?x1476 S_0 A_1) 0.0)) $x32524)))
 (let ((?x3791 (* (- (/ 1.0 4.0)) S_4)))
 (let (($x3831 (<= (+ ?x723 (* (- (/ 3.0 4.0)) A_0) (* (/ 3.0 4.0) L_0) ?x3791 ?x765 A_1) 0.0)))
 (let (($x16062 (<= (+ (* (- (/ 3.0 2.0)) L_1) (* (/ 3.0 2.0) A_1) ?x3616 L_0 ?x860) 0.0)))
 (let ((?x2938 (* (- (/ 1.0 3.0)) S_3)))
 (let ((?x3002 (* (/ 2.0 3.0) L_0)))
 (let ((?x3001 (* (- (/ 2.0 3.0)) A_0)))
 (let (($x333008 (or $x1342 $x2231 (not (<= (+ ?x723 ?x3001 ?x3002 ?x2938 ?x765 A_1) 0.0)) $x16062)))
 (let (($x17936 (<= (+ ?x1378 ?x1337 ?x1368 S_4 (* 3.0 L_2) (* (- 3.0) A_2)) 0.0)))
 (let (($x2497 (<= (+ (* (- (/ 2.0 3.0)) L_1) (* (/ 2.0 3.0) A_1) ?x2397 L_2 ?x1015) 0.0)))
 (let (($x841901 (or $x1658 $x2777 (<= (+ ?x1383 Q_4 ?x767 ?x1384 (* 3.0 S_2) L_2) 0.0))))
 (let (($x111670 (or $x2187 (<= (+ ?x1015 L_2 S_4 ?x1908 (* (- 2.0) S_2) ?x1461) 0.0))))
 (let (($x83437 (<= (+ (* (/ 1.0 2.0) A_1) ?x3770 ?x12253 ?x1334 (* (/ 1.0 2.0) S_0) ?x3568 ?x18996) 0.0)))
 (let ((?x2998 (* (- (/ 1.0 3.0)) L_0)))
 (let ((?x2961 (* (- (/ 1.0 3.0)) A_0)))
 (let ((?x2471 (* (/ 2.0 3.0) S_4)))
 (let ((?x35064 (+ ?x2471 ?x2961 ?x2998 (* (- (/ 2.0 3.0)) A_4) ?x1334 (* (/ 2.0 3.0) S_0) (* (/ 2.0 3.0) L_1) (* (/ 2.0 3.0) A_3))))
 (let (($x35020 (<= ?x35064 0.0)))
 (let (($x345886 (or $x669 $x1336 $x3580 $x35020 (<= (+ S_4 A_0 ?x756 ?x767 ?x1334 L_1 ?x849 A_3) 0.0))))
 (let (($x2005 (<= (+ Q_4 A_2 ?x774 A_0 ?x756 ?x1383 ?x1384) 0.0)))
 (let (($x369001 (or $x2231 (not $x16062) (not (<= (+ ?x11485 (* (/ 1.0 2.0) A_1) ?x3597 L_2 ?x1015) 0.0)) (<= (+ ?x765 ?x1254 A_1 S_3 ?x1321 ?x921) 0.0))))
 (let ((?x8055 (* 4.0 A_1)))
 (let ((?x4478 (* (- 4.0) L_1)))
 (let ((?x1339 (* 3.0 L_2)))
 (let (($x8063 (<= (+ ?x723 A_4 ?x860 L_0 ?x1339 ?x4478 ?x8055 ?x3388) 0.0)))
 (let (($x5335 (<= (+ ?x723 A_4 ?x860 L_0 ?x1653 ?x1321 (* 3.0 A_1) ?x921 ?x758) 0.0)))
 (let (($x837013 (or $x669 $x2187 $x20759 (<= (+ ?x1015 L_2 S_4 ?x767 ?x1476 ?x756 S_0 L_1 A_3) 0.0))))
 (let (($x5315 (<= (+ Q_4 ?x767 ?x1971 ?x1356 (* 3.0 S_1) L_2 ?x1015 A_3) 0.0)))
 (let (($x16120 (<= (+ ?x11485 (* (/ 1.0 2.0) A_1) ?x3597 L_2 ?x1015) 0.0)))
 (let (($x365837 (or $x2777 (<= (+ L_1 ?x1254 ?x1365 ?x849 (* 3.0 S_3) ?x1321) 0.0))))
 (let (($x345090 (or $x1250 $x2231 $x5335 $x7225 (<= (+ ?x765 A_1 L_2 ?x921 A_3) 0.0))))
 (let (($x5318 (<= (+ ?x1254 ?x1365 (* (- 4.0) A_0) L_0 ?x5316 ?x1621 ?x774 A_2 ?x1371) 0.0)))
 (let (($x344827 (or $x669 (<= (+ Q_4 ?x767 A_0 ?x756 ?x1621 ?x1357 ?x1608 ?x1358 A_3) 0.0) $x2777 $x5318)))
 (let (($x8019 (<= (+ ?x723 A_4 ?x1453 ?x756 ?x1469 L_2 ?x1378 ?x921) 0.0)))
 (let (($x5313 (<= (+ ?x1980 ?x1446 ?x4468 ?x756 ?x4465 ?x1653 L_2 ?x1015 ?x1388) 0.0)))
 (let ((?x1340 (* (- 3.0) A_2)))
 (let ((?x8858 (* (- 5.0) L_1)))
 (let (($x370361 (or $x1350 $x2231 $x5313 $x8068 (<= (+ ?x8858 ?x723 A_4 ?x1368 ?x4465 ?x1321 ?x1453 ?x1340) 0.0) (<= (+ ?x1653 ?x723 A_4 A_1 ?x1469 L_2 ?x1908 ?x1015 ?x758) 0.0))))
 (let (($x361640 (or $x1350 $x2231 (not (<= (+ A_4 ?x758 A_0 ?x756 L_1 ?x849) 0.0)) $x7848)))
 (let (($x3012 (<= (+ Q_4 ?x767 ?x2961 ?x2930 (* (/ 4.0 3.0) S_3) L_2) 0.0)))
 (let (($x835495 (or (<= (+ ?x11485 (* (/ 1.0 2.0) A_1) A_4 (* (- (/ 3.0 2.0)) S_3) ?x774) 0.0) (<= (+ ?x13372 Q_4 ?x767 ?x13418 (* (/ 3.0 2.0) S_3)) 0.0))))
 (let (($x9822 (<= (+ ?x756 L_1) 0.0)))
 (let (($x8978 (<= (+ ?x1621 ?x849 ?x1963 ?x8010 ?x1357 ?x1971 ?x1358) 0.0)))
 (let (($x5295 (<= (+ ?x723 A_4 ?x1908 ?x1461 (* (- 3.0) S_2) ?x774 A_2 ?x758) 0.0)))
 (let (($x358805 (or $x2777 (<= (+ Q_4 ?x767 ?x860 L_0 (* 2.0 S_2) L_2) 0.0) (<= (+ ?x1254 ?x1365 ?x1371 ?x860 L_0 S_2) 0.0))))
 (let (($x18860 (<= (+ L_1 Q_4 ?x767 ?x849 (* 2.0 S_2) L_2 ?x1015 A_3) 0.0)))
 (let (($x372048 (or $x1386 $x2231 $x2777 (<= (+ Q_4 ?x758 S_4 ?x765 A_1 ?x1321 ?x1015) 0.0))))
 (let (($x8026 (not (<= (+ Q_4 A_4 A_0 ?x756 L_2 ?x921) 0.0))))
 (let (($x3495 (<= (+ A_2 ?x774 A_0 ?x1476 ?x756 L_1 ?x849) 0.0)))
 (let (($x5544 (<= (+ A_0 ?x756 ?x1334 ?x1383 ?x1357 ?x1384 ?x1358) 0.0)))
 (let (($x351503 (or $x2231 (not (<= (+ ?x1908 ?x756 A_4 ?x1348 ?x849 ?x758) 0.0)) $x5313 $x8019 $x17132)))
 (let (($x4721 (not (<= (+ ?x723 A_4 ?x1908 ?x1461 ?x1621 ?x774 ?x1608 A_2 ?x758) 0.0))))
 (let (($x355737 (or $x1350 $x2231 $x4721 $x8019 (<= (+ ?x723 A_4 ?x1908 ?x756 ?x1348 ?x849 ?x758) 0.0))))
 (let (($x373555 (or $x1336 $x2231 $x3580 (<= (+ ?x1492 A_0 ?x756 ?x1365 ?x1334 ?x1321 ?x921 ?x1371) 0.0))))
 (let (($x4740 (<= (+ ?x860 ?x1476 S_0 A_1) 0.0)))
 (let (($x364769 (or $x669 $x1345 $x1380 $x4740 (<= (+ ?x3770 A_0 ?x756 ?x12253 ?x1476 ?x12254 ?x13418 ?x18996) 0.0))))
 (let (($x832933 (or $x2231 $x2777 $x3841 (<= (+ ?x765 ?x1337 ?x1619 A_1 ?x1492 ?x1339 ?x1340 ?x1614) 0.0))))
 (let ((?x6184 (* 6.0 A_3)))
 (let ((?x6152 (* (- 6.0) A_2)))
 (let ((?x6186 (* 6.0 L_2)))
 (let ((?x6206 (* (- 6.0) A_4)))
 (let ((?x6207 (* 4.0 S_4)))
 (let (($x329347 (or $x2231 $x2775 (<= (+ ?x6207 ?x1908 ?x1461 ?x6206 ?x6186 ?x6152 ?x6184) 0.0) (<= (+ ?x765 A_1 S_4 ?x1365 ?x1321 ?x921 ?x1371) 0.0))))
 (let (($x382137 (or $x1350 $x1686 $x2231 $x2364 (<= (+ ?x1378 A_1 A_4 ?x1348 L_2 A_0 ?x1015 ?x758) 0.0))))
 (let (($x332757 (or $x1350 $x2231 (<= (+ ?x1492 ?x1908 ?x756 ?x1365 ?x1348 ?x765 ?x1339 ?x1340 ?x1371) 0.0) (<= (+ ?x1378 A_1 S_4 ?x767 ?x1348 ?x1321 A_0 ?x921 A_3) 0.0))))
 (let (($x5738 (<= (+ S_4 ?x767 ?x765 ?x1321 A_1 ?x921 A_3) 0.0)))
 (let (($x2913 (<= (+ ?x1015 L_2 S_3 L_1 ?x849 ?x756 A_0) 0.0)))
 (let (($x264324 (or $x669 $x2187 $x3495 (<= (+ ?x756 (* (- 2.0) S_2) S_0 L_1 ?x774 A_2) 0.0))))
 (let (($x5081 (<= (+ ?x860 L_0 S_1 ?x765 L_2 A_1 ?x1015) 0.0)))
 (let (($x44809 (or $x1926 (<= (+ (* (- (/ 2.0 3.0)) L_1) (* (/ 2.0 3.0) A_1) ?x2397 ?x1334) 0.0) (<= (+ ?x3610 ?x3593 ?x3770 ?x1334) 0.0))))
 (let (($x1688 (<= (+ ?x723 A_4 ?x765 L_2 A_1 ?x1015 ?x758) 0.0)))
 (let (($x3402 (<= (+ ?x3001 ?x3002 (* (/ 2.0 3.0) S_3) ?x1378 ?x1321 ?x1368 ?x921) 0.0)))
 (let (($x16094 (<= (+ (* (- (/ 3.0 2.0)) L_1) (* (/ 1.0 2.0) A_1) ?x3597 ?x1348 L_2 A_0 ?x1015) 0.0)))
 (let (($x5207 (<= (+ (* (/ 4.0 3.0) A_0) ?x2998 (* (/ 2.0 3.0) S_3) ?x1348 ?x765 L_2 ?x1015) 0.0)))
 (let (($x323347 (or $x2187 $x2231 (<= (+ ?x860 L_0 S_3 ?x1653 ?x1339 (* 3.0 A_1) ?x1340) 0.0))))
 (let (($x342394 (or $x1336 $x2231 $x6238 (<= (+ ?x765 A_1 S_4 ?x767 ?x1334 L_2 ?x1015 A_3) 0.0))))
 (let (($x255125 (or $x669 $x1336 $x5544 (<= (+ ?x860 ?x1334 S_0 L_1 ?x774 A_2) 0.0))))
 (let (($x820436 (or $x2187 $x2231 (<= (+ ?x1971 ?x1356 (* 2.0 S_1) ?x1378 ?x1321 ?x1368 ?x921) 0.0))))
 (let (($x798852 (or (<= (+ Q_4 ?x860 L_0 (* 2.0 S_1) L_2 ?x1015) 0.0) $x2231 $x2777)))
 (and (<= ?x765 ?x756) (<= ?x774 ?x765) (or $x1245 $x669 (<= (+ Q_4 S_2 L_2 ?x1015) 0.0) $x1355) (or $x669 $x1355 (<= (+ Q_4 S_1 L_1 ?x849) 0.0)) (or (<= (+ Q_4 S_2 L_2 ?x1015) 0.0) $x2231) $x798852 (or $x1336 $x2231 $x5738) (or $x2187 $x2231 $x5738) $x820436 $x255125 (or $x2187 (<= (+ ?x3768 ?x3769 ?x3755 ?x1476) 0.0)) (or $x2231 (<= (+ ?x765 S_2 ?x1348 L_2 A_0 ?x1015) 0.0)) $x342394 (or $x2187 (<= (+ ?x758 S_4 A_0 ?x1476 ?x756 L_1) 0.0)) (or $x1336 $x1612 $x1686) (or $x1953 (<= (+ ?x723 A_4 ?x758 A_0 ?x756 ?x1476) 0.0)) (or $x1688 $x1953 $x2231) $x323347 (or $x1350 $x1688 $x2231) (or $x1350 $x2231 (<= (+ ?x860 L_0 S_2 ?x1378 ?x1321 ?x1368 ?x921) 0.0)) (or $x1350 $x2231 $x3402) (or $x1336 $x6864 (<= (+ L_1 ?x849 ?x1963 (* 2.0 S_2)) 0.0)) (or $x1350 $x6864 (<= (+ L_1 ?x849 ?x1963 (* 2.0 S_2)) 0.0)) (or $x1350 $x2231 $x5207 $x16094) (or $x1926 $x2231 (<= (+ ?x860 L_0 S_2 ?x1378 ?x1321 ?x1368 ?x921) 0.0)) (or $x2231 $x2775 $x5738) (or $x2187 (<= (+ (* (/ 2.0 3.0) A_0) ?x2786 ?x2963 ?x1476) 0.0)) (or $x2231 $x2775 $x5081) (or $x2231 $x2775 $x3402) (or $x2231 $x2775 (<= (+ ?x860 L_0 S_2 ?x1378 ?x1321 ?x1368 ?x921) 0.0)) (or $x1336 $x4928 $x6864) (or $x1350 $x4904 $x6864) (or $x1336 $x4904 $x6864) (or $x669 $x2187 $x4954 $x5977 $x6864) (or $x1350 $x2187 (<= (+ ?x723 A_4 ?x758 A_0 ?x756 ?x1476) 0.0)) (or $x1688 $x1926 $x2231 $x3632) (or $x1380 $x1688 $x2231 $x2777) (or $x2777 $x7895 $x8008 $x8026) (or $x2775 $x4904) (or $x1336 $x5544 $x6864 $x8978 $x9822) (or $x2775 $x4928 $x42648) (or $x2187 (<= (+ ?x1015 L_2 S_3 A_0 ?x1476 ?x756) 0.0)) (or (<= (+ Q_4 S_1 L_1 ?x849) 0.0) $x4928 $x6864 $x42648) $x44809 (or $x2777 $x6864 $x13376) (or $x1953 $x2231 $x4928 $x6864) (or $x1350 $x2231 $x5313 $x8019 $x13333) (or $x1926 $x2231 $x5081) (or $x1926 (<= (+ ?x3568 ?x3616 ?x3569 S_1) 0.0)) $x264324 (or $x1953 $x4904 $x6864) (or $x669 $x1336 $x4954 $x5977 $x6864) (or $x1336 $x5309 $x6864 $x8032 $x16671) (or $x669 $x1355 $x2777 $x2913) (or $x669 $x1355 $x2005 $x2777) (or $x1345 $x2187 (<= (+ ?x723 A_4 ?x758 A_0 ?x756 ?x1476) 0.0)) (or $x1350 $x5664 $x6864 $x8978 $x9822) (or $x669 $x1350 $x4954 $x5977 $x6864) (or $x1350 $x2231 $x5738) $x332757 $x382137 (or $x1336 $x2231 $x5335 $x8063) (or $x1350 $x2231 $x5335 $x8063) $x329347 $x832933 (or (not (<= (+ ?x767 ?x2961 ?x2930 ?x2963 A_3) 0.0)) $x3012) (or $x1336 $x3580 $x7893) $x364769 $x373555 $x355737 $x351503 (or $x669 $x3632 $x5544 $x35020) (or $x669 $x2187 $x3495 $x32524) (or $x1336 $x1612 $x8030) (or $x1953 $x5295 $x8009) (or $x2231 $x2777 $x5335 $x8026 $x8063) (or $x1350 $x1686 $x2231 $x15887) $x372048 (or $x2231 $x2777 $x18860) (or $x1336 $x1654 $x6864 $x8032) $x358805 (or $x1380 $x2231 $x5335 $x8063 $x47495) (or $x1345 $x2187 $x5295 $x8009) (or $x2775 $x8978 $x9822 (not $x13333)) (or $x1953 $x4928 $x6864 $x42648) (or $x1336 $x5238 $x8030 $x16683 $x18846) (or $x1350 $x2231 $x5309 $x6864 $x8019 $x16671) $x835495 (or $x2777 $x3012) $x361640 (or $x1350 $x5309 $x6864 $x8032 $x16671) (or $x1953 $x5309 $x6864 $x8032) $x370361 (or $x1350 $x2231 $x5313 $x8019 $x8022) $x344827 (or $x1377 $x1380 $x2231 $x2777 $x5335) $x345090 $x365837 (or $x2231 $x2777 $x16120) (or $x2231 $x2777 (<= (+ Q_4 ?x767 S_3 L_2 ?x1015 A_3) 0.0)) (or $x2231 $x2777 $x5315) $x837013 (or $x669 $x2775 $x17398 $x20759) (or $x1953 $x2231 $x5335 $x8063) $x369001 (or $x2005 $x2231 $x9048 $x17170) $x345886 (or $x669 $x1336 $x20759 $x35020 $x83437) $x111670 $x841901 (or (not $x1386) $x2231 $x2497 $x3280) (or $x2231 $x2497 $x2777) (or $x2231 (not $x2497) $x3841 $x17936) (or $x1686 $x2777 $x5309 $x6864 $x16671 $x17934) $x333008 (or $x1333 $x1919 $x2231 $x2705 $x13333) (or $x1333 $x2231 $x2495 (not $x3831)) $x838103 (or $x669 $x1245 $x1355 $x2495 $x17190) $x383453 (or $x2231 $x2777 $x4635) (or $x2003 $x2231 $x9048 $x17170) $x341490 (or $x1350 $x2231 $x7848 $x15887) $x364220 (or $x669 $x2775 $x4954 $x5977) (or (not $x1386) $x2231 $x3280 $x9048) (or $x2231 $x9048 $x13333 $x17132) $x359422 $x330250 (or $x1390 $x2777 $x5309 $x6864 $x8032 $x13432) $x836185 (or $x669 (<= (+ Q_4 S_2 L_2 ?x1015) 0.0) $x1658 $x92371) (or $x1926 $x3580 (<= (+ ?x758 S_4 ?x3610 ?x3616 ?x3593 L_1) 0.0)) (or $x669 $x1355 $x2777 $x2910) $x842746 $x326416 (or $x1377 $x2777 $x5309 $x6864 $x16671 $x17934) (or $x2775 $x13376) (or $x1336 $x7314 $x8068 $x16683 $x69020) (or $x1336 $x3632 $x7314 $x8030) (or $x1250 $x5309 $x6864 $x7225 $x8068 $x16671 $x17934) (or $x2777 (<= (+ Q_4 ?x767 ?x1015 L_2 ?x1338 L_1) 0.0)) (or $x669 (not $x1686) $x2777 $x3280 $x5664 $x16669) (or $x1350 $x1926 $x3580 $x7893) (or $x669 $x1355 $x1919 $x2705) $x363489 (or $x669 $x1355 $x1380 (<= (+ ?x1254 A_0 ?x756 S_2 ?x1383 ?x1384) 0.0)) (or (<= (+ Q_4 S_2 L_2 ?x1015) 0.0) $x4904 $x6864) (or $x669 $x1355 $x1380 $x47276 $x47495) (or $x1926 $x3632 $x7893) (or $x2777 $x4928 $x6864 $x42648) (or $x1350 $x1612 $x1686 $x1926) (or $x1612 (not $x2003) $x1926 $x8030) (or $x1612 $x2003 $x3632 $x8030) (or $x2777 $x7895 $x8008 $x29745) (or $x1654 $x1953 $x6864 $x8032 $x31799 $x42662) (or $x1656 $x1953 $x8009) (or $x1350 $x1926 $x5238 $x8030 $x16683 $x18846) $x825705 $x806155 (or $x1350 $x2187 (not (<= (+ ?x756 L_2) 0.0)) $x11006 $x55284) (or $x1350 $x1654 $x6864 $x8032 $x31799 $x42662) (or $x1345 $x2364 $x4471 $x8009 $x13333) $x322664 $x367140 (or $x669 $x1333 (not $x3843) $x22807 $x49909) (or $x669 $x2777 $x20621 $x42500) (or $x1230 $x1654 $x2248 $x4916 $x6864 $x8032 $x48205) (or $x1231 $x1654 $x2777 $x6864 $x8032) (or $x1350 $x6864 $x8032 $x10890 $x17170 $x22398 $x31799) (or $x1654 $x2777 $x4916 $x6864 $x8032 $x48205) (or $x669 $x1230 $x1598 $x2250 $x2495 $x22807) (or $x1656 $x1953 $x2199 $x55284) (or $x1350 $x2187 $x2199 $x11006 $x55284) (or $x1350 $x1686 $x1926 $x16683 $x69020) (or $x1350 $x3280 $x7314 $x8030 $x13591) (or $x1336 $x7314 $x8022 $x8030) (or $x1350 $x1926 $x7314 $x8030 $x13591) (or $x1350 $x1926 $x7314 $x8030 $x16683 $x69020) (or $x1926 $x3638 (<= (+ ?x758 S_4 A_1 ?x1334) 0.0)) $x814856 $x816875 $x823447 $x821820 (or $x2187 $x2364 $x4471 $x8009) (or $x669 $x1598 $x2777 $x22807) (or $x1350 $x2187 $x8009 $x11006) $x829563 (or $x669 $x1658 $x2777 $x11071) $x830233 (or $x669 $x2777 $x42500 $x50037) $x340351 (or $x669 $x2777 $x4074 $x92371) (or $x2777 $x4904 $x6864) (or $x669 $x2777 $x19656 $x47276) (or $x669 $x2777 $x19656 $x20759) $x810373 (or $x669 (not $x6238) $x19656 $x49909) $x361513 (or $x669 $x1660 (not $x20621) $x42500) (or $x669 $x2777 $x3841 $x44832) $x1387 (<= (+ ?x860 L_0 S_0) 0.0) (<= (+ ?x1015 L_2 S_2) 0.0) (<= (+ L_1 ?x849 S_1) 0.0) (<= (+ Q_4 ?x767 S_4 L_2) 0.0) (<= (+ ?x1963 S_3) 0.0) (<= (+ ?x758 L_2 S_3) 0.0) (<= (+ ?x1476 S_1) 0.0) (<= (+ ?x1334 S_2) 0.0) (<= (+ ?x1348 S_0) 0.0)))))))))))))))))))))))))))))))))))))))))))))))))))))))))))))))))))))))))))))))))))))))))))))))))))))))))))))))))))))))))))))))))))))))))))))))))))))))))))))))))))))))))))))))))))))))))))))))))))))))))))))))))))))))))))))))))))))))))))))))))))))))))))))))))))))))))))))))))))))))))))))))))))))))))))))))))))))))))
(check-sat)
